(synth-fun verifier.error ((x0 Bool) (x1 Bool) (x2 Bool) ) Bool
)
(synth-fun mainventry ((x0 Int) (x1 Int) (x2 Int) ) Bool
)
(synth-fun mainvempty.loop ((x0 Int) (x1 Int) (x2 Int) (x3 Int) (x4 Int) (x5 Int) (x6 Int) (x7 Int) (x8 Int) (x9 Int) (x10 (Array Int Int)) (x11 Int) ) Bool
)
(synth-fun mainv.preheader ((x0 Int) (x1 Int) (x2 Int) (x3 Int) (x4 Int) (x5 Int) (x6 Int) (x7 Int) (x8 Int) (x9 Int) (x10 Int) (x11 Int) (x12 (Array Int Int)) (x13 Int) ) Bool
)
(synth-fun mainv_34 ((x0 Int) (x1 Int) (x2 Int) (x3 Int) (x4 Int) (x5 Int) (x6 Int) (x7 Int) (x8 Int) (x9 Int) (x10 Int) (x11 Int) (x12 (Array Int Int)) (x13 Int) ) Bool
)
(synth-fun mainv_39 ((x0 Int) (x1 Int) (x2 Int) (x3 Int) (x4 Int) (x5 Int) (x6 Int) (x7 Int) (x8 Int) (x9 Int) (x10 Int) (x11 Int) (x12 (Array Int Int)) (x13 Int) ) Bool
)
(synth-fun mainvpositive_sum.exit.i.split () Bool
)
(synth-fun mainventry!_BAD () Bool
)
(synth-fun mainv.preheader!_Cond ((x0 Int) (x1 Int) (x2 Int) (x3 Int) (x4 Int) (x5 Int) (x6 Int) (x7 Int) (x8 Int) (x9 Int) (x10 Int) (x11 (Array Int Int)) (x12 Int) (x13 Int) (x14 Int) ) Bool
)
(declare-var mainv%_49_0 Bool )
(declare-var mainv%_50_0 Int )
(declare-var mainv%_51_0 Bool )
(declare-var mainv%_52_0 Int )
(declare-var mainv%spec.select.1_0 Int )
(declare-var mainv%_53_0 Bool )
(declare-var mainv%_54_0 Int )
(declare-var mainv%spec.select.2_0 Int )
(declare-var mainv%_55_0 Bool )
(declare-var mainv%_56_0 Int )
(declare-var mainv%spec.select.3_0 Int )
(declare-var mainv%_57_0 Bool )
(declare-var mainv%_58_0 Int )
(declare-var mainv%spec.select.4_0 Int )
(declare-var mainv%_59_0 Bool )
(declare-var mainv%_60_0 Int )
(declare-var mainv%spec.select.5_0 Int )
(declare-var mainv%_61_0 Bool )
(declare-var mainv%_62_0 Int )
(declare-var mainv%spec.select.6_0 Int )
(declare-var mainv%_63_0 Bool )
(declare-var mainv%_40_0 Int )
(declare-var mainv%_41_0 Int )
(declare-var mainv%_42_0 Int )
(declare-var mainv%_43_0 Int )
(declare-var mainv%_44_0 Int )
(declare-var mainv%_45_0 Int )
(declare-var mainv%_46_0 Int )
(declare-var mainv%_48_0 Bool )
(declare-var mainv%_35_0 Int )
(declare-var mainv%_36_0 Int )
(declare-var mainv%_37_0 Int )
(declare-var mainv%_24_0 Int )
(declare-var mainv%_25_0 Int )
(declare-var mainv%_26_0 Int )
(declare-var mainv%_27_0 Int )
(declare-var mainv%_28_0 Int )
(declare-var mainv%_29_0 Int )
(declare-var mainv%_30_0 Int )
(declare-var mainv%_31_0 Int )
(declare-var vfind_condition_0 Int )
(declare-var mainv%_32_0 Int )
(declare-var mainv%_33_0 Bool )
(declare-var mainv%nd.loop.cond_0 Bool )
(declare-var mainv%sm7_0 (Array Int Int) )
(declare-var mainv%_0_0 Bool )
(declare-var mainv%_2_0 Int )
(declare-var mainv%_3_0 Int )
(declare-var vnd_0 Int )
(declare-var mainv%_5_0 Int )
(declare-var mainv%sm_0 (Array Int Int) )
(declare-var mainv%_6_0 Int )
(declare-var mainv%_8_0 Int )
(declare-var mainv%sm1_0 (Array Int Int) )
(declare-var mainv%_9_0 Int )
(declare-var mainv%_11_0 Int )
(declare-var mainv%sm2_0 (Array Int Int) )
(declare-var mainv%_12_0 Int )
(declare-var mainv%_14_0 Int )
(declare-var mainv%sm3_0 (Array Int Int) )
(declare-var mainv%_15_0 Int )
(declare-var mainv%_17_0 Int )
(declare-var mainv%sm4_0 (Array Int Int) )
(declare-var mainv%_18_0 Int )
(declare-var mainv%_20_0 Int )
(declare-var mainv%sm5_0 (Array Int Int) )
(declare-var mainv%_21_0 Int )
(declare-var mainv%_23_0 Int )
(declare-var vg_0 Int )
(declare-var mainventry_0 Bool )
(declare-var mainv%loop.bound_0 Int )
(declare-var mainv%_1_0 Int )
(declare-var mainv%_4_0 Int )
(declare-var mainv%_7_0 Int )
(declare-var mainv%_10_0 Int )
(declare-var mainv%_13_0 Int )
(declare-var mainv%_16_0 Int )
(declare-var mainv%_19_0 Int )
(declare-var mainv%_22_0 Int )
(declare-var mainv%sm6_0 (Array Int Int) )
(declare-var mainvempty.loop_0 Bool )
(declare-var mainvempty.loop.body_0 Bool )
(declare-var mainvempty.loop_1 Bool )
(declare-var mainv.preheader_0 Bool )
(declare-var mainv%.02.i.i7_0 Int )
(declare-var mainv%.03.i.i5_0 Int )
(declare-var mainv%.02.i.i7_1 Int )
(declare-var mainv%.03.i.i5_1 Int )
(declare-var mainv_34_0 Bool )
(declare-var mainv_39_0 Bool )
(declare-var mainv%.1.i.i_0 Int )
(declare-var mainv%.1.i.i_1 Int )
(declare-var mainv%_38_0 Int )
(declare-var mainv%_47_0 Int )
(declare-var mainv%.03.i.i5_2 Int )
(declare-var mainvpositive_sum.exit.i_0 Bool )
(declare-var mainvpositive_sum.exit.i.split_0 Bool )
(constraint (verifier.error false false false))
(constraint (verifier.error false true true))
(constraint (verifier.error true false true))
(constraint (verifier.error true true true))
(constraint (mainventry vg_0 vfind_condition_0 vnd_0))
(constraint (let ((a!1 (= mainv%_5_0 (+ (+ mainv%_1_0 (* 0 28)) (* 0 4))))
      (a!2 (= mainv%_8_0 (+ (+ mainv%_1_0 (* 0 28)) (* 1 4))))
      (a!3 (= mainv%_11_0 (+ (+ mainv%_1_0 (* 0 28)) (* 2 4))))
      (a!4 (= mainv%_14_0 (+ (+ mainv%_1_0 (* 0 28)) (* 3 4))))
      (a!5 (= mainv%_17_0 (+ (+ mainv%_1_0 (* 0 28)) (* 4 4))))
      (a!6 (= mainv%_20_0 (+ (+ mainv%_1_0 (* 0 28)) (* 5 4))))
      (a!7 (= mainv%_23_0 (+ (+ mainv%_1_0 (* 0 28)) (* 6 4)))))
  (=> (and (mainventry vg_0 vfind_condition_0 vnd_0)
           true
           (= mainv%_0_0 (= mainv%loop.bound_0 6))
           mainv%_0_0
           (> mainv%_1_0 0)
           (= mainv%_2_0 mainv%_1_0)
           (= mainv%_3_0 vnd_0)
           a!1
           (or (<= mainv%_1_0 0) (> mainv%_5_0 0))
           (= mainv%sm_0 (store mainv%sm7_0 mainv%_5_0 mainv%_4_0))
           (= mainv%_6_0 vnd_0)
           a!2
           (or (<= mainv%_1_0 0) (> mainv%_8_0 0))
           (> mainv%_1_0 0)
           (= mainv%sm1_0 (store mainv%sm_0 mainv%_8_0 mainv%_7_0))
           (= mainv%_9_0 vnd_0)
           a!3
           (or (<= mainv%_1_0 0) (> mainv%_11_0 0))
           (> mainv%_1_0 0)
           (= mainv%sm2_0 (store mainv%sm1_0 mainv%_11_0 mainv%_10_0))
           (= mainv%_12_0 vnd_0)
           a!4
           (or (<= mainv%_1_0 0) (> mainv%_14_0 0))
           (> mainv%_1_0 0)
           (= mainv%sm3_0 (store mainv%sm2_0 mainv%_14_0 mainv%_13_0))
           (= mainv%_15_0 vnd_0)
           a!5
           (or (<= mainv%_1_0 0) (> mainv%_17_0 0))
           (> mainv%_1_0 0)
           (= mainv%sm4_0 (store mainv%sm3_0 mainv%_17_0 mainv%_16_0))
           (= mainv%_18_0 vnd_0)
           a!6
           (or (<= mainv%_1_0 0) (> mainv%_20_0 0))
           (> mainv%_1_0 0)
           (= mainv%sm5_0 (store mainv%sm4_0 mainv%_20_0 mainv%_19_0))
           (= mainv%_21_0 vnd_0)
           a!7
           (or (<= mainv%_1_0 0) (> mainv%_23_0 0))
           (> mainv%_1_0 0)
           (= mainv%sm6_0 (store mainv%sm5_0 mainv%_23_0 mainv%_22_0))
           (=> mainvempty.loop_0 (and mainvempty.loop_0 mainventry_0))
           mainvempty.loop_0)
      (mainvempty.loop mainv%_4_0
                       mainv%_7_0
                       mainv%_10_0
                       mainv%_13_0
                       mainv%_16_0
                       mainv%_19_0
                       mainv%_22_0
                       vg_0
                       mainv%loop.bound_0
                       mainv%_1_0
                       mainv%sm6_0
                       vfind_condition_0))))
(constraint (let ((a!1 (mainvempty.loop mainv%_4_0
                            mainv%_7_0
                            mainv%_10_0
                            mainv%_13_0
                            mainv%_16_0
                            mainv%_19_0
                            mainv%_22_0
                            vg_0
                            mainv%loop.bound_0
                            mainv%_1_0
                            mainv%sm6_0
                            vfind_condition_0)))
  (=> (and a!1
           true
           (=> mainvempty.loop.body_0
               (and mainvempty.loop.body_0 mainvempty.loop_0))
           (=> (and mainvempty.loop.body_0 mainvempty.loop_0)
               mainv%nd.loop.cond_0)
           (=> mainvempty.loop_1 (and mainvempty.loop_1 mainvempty.loop.body_0))
           mainvempty.loop_1)
      a!1)))
(constraint (=> (and (mainvempty.loop mainv%_4_0
                          mainv%_7_0
                          mainv%_10_0
                          mainv%_13_0
                          mainv%_16_0
                          mainv%_19_0
                          mainv%_22_0
                          vg_0
                          mainv%loop.bound_0
                          mainv%_1_0
                          mainv%sm6_0
                          vfind_condition_0)
         true
         (=> mainv.preheader_0 (and mainv.preheader_0 mainvempty.loop_0))
         (=> (and mainv.preheader_0 mainvempty.loop_0)
             (not mainv%nd.loop.cond_0))
         (=> (and mainv.preheader_0 mainvempty.loop_0) (= mainv%.02.i.i7_0 0))
         (=> (and mainv.preheader_0 mainvempty.loop_0) (= mainv%.03.i.i5_0 0))
         (=> (and mainv.preheader_0 mainvempty.loop_0)
             (= mainv%.02.i.i7_1 mainv%.02.i.i7_0))
         (=> (and mainv.preheader_0 mainvempty.loop_0)
             (= mainv%.03.i.i5_1 mainv%.03.i.i5_0))
         mainv.preheader_0)
    (mainv.preheader mainv%_4_0
                     mainv%_7_0
                     mainv%_10_0
                     mainv%_13_0
                     mainv%_16_0
                     mainv%_19_0
                     mainv%_22_0
                     vg_0
                     mainv%.03.i.i5_1
                     mainv%loop.bound_0
                     mainv%.02.i.i7_1
                     mainv%_1_0
                     mainv%sm6_0
                     vfind_condition_0)))
(constraint (let ((a!1 (and (mainv_34 mainv%_4_0
                          mainv%_7_0
                          mainv%_10_0
                          mainv%_13_0
                          mainv%_16_0
                          mainv%_19_0
                          mainv%_22_0
                          vg_0
                          mainv%.03.i.i5_0
                          mainv%loop.bound_0
                          mainv%.02.i.i7_0
                          mainv%_1_0
                          mainv%sm6_0
                          vfind_condition_0)
                true
                (= mainv%_35_0 vg_0)
                (= mainv%_36_0 (+ mainv%_1_0 (* 0 28) (* mainv%.03.i.i5_0 4)))
                (or (<= mainv%_1_0 0) (> mainv%_36_0 0))
                (> mainv%_1_0 0)
                (= mainv%_37_0 (select mainv%sm6_0 mainv%_36_0))
                (= mainv%_38_0 (- mainv%.02.i.i7_0 mainv%_37_0))
                (=> mainv_39_0 (and mainv_39_0 mainv_34_0))
                (=> (and mainv_39_0 mainv_34_0) (= mainv%.1.i.i_0 mainv%_38_0))
                (=> (and mainv_39_0 mainv_34_0)
                    (= mainv%.1.i.i_1 mainv%.1.i.i_0))
                mainv_39_0)))
  (=> a!1
      (mainv_39 mainv%_4_0
                mainv%_7_0
                mainv%_10_0
                mainv%_13_0
                mainv%_16_0
                mainv%_19_0
                mainv%_22_0
                mainv%.1.i.i_1
                vg_0
                mainv%.03.i.i5_0
                mainv%loop.bound_0
                mainv%_1_0
                mainv%sm6_0
                vfind_condition_0))))
(constraint (=> (and (mainv_39 mainv%_4_0
                   mainv%_7_0
                   mainv%_10_0
                   mainv%_13_0
                   mainv%_16_0
                   mainv%_19_0
                   mainv%_22_0
                   mainv%.1.i.i_0
                   vg_0
                   mainv%.03.i.i5_0
                   mainv%loop.bound_0
                   mainv%_1_0
                   mainv%sm6_0
                   vfind_condition_0)
         true
         (= mainv%_40_0 vg_0)
         (= mainv%_41_0 vg_0)
         (= mainv%_42_0 vg_0)
         (= mainv%_43_0 vg_0)
         (= mainv%_44_0 vg_0)
         (= mainv%_45_0 vg_0)
         (= mainv%_46_0 vg_0)
         (= mainv%_47_0 (+ mainv%.03.i.i5_0 1))
         (= mainv%_48_0 (< mainv%.03.i.i5_0 mainv%loop.bound_0))
         (=> mainv.preheader_0 (and mainv.preheader_0 mainv_39_0))
         (=> (and mainv.preheader_0 mainv_39_0) mainv%_48_0)
         (=> (and mainv.preheader_0 mainv_39_0)
             (= mainv%.02.i.i7_0 mainv%.1.i.i_0))
         (=> (and mainv.preheader_0 mainv_39_0)
             (= mainv%.03.i.i5_1 mainv%_47_0))
         (=> (and mainv.preheader_0 mainv_39_0)
             (= mainv%.02.i.i7_1 mainv%.02.i.i7_0))
         (=> (and mainv.preheader_0 mainv_39_0)
             (= mainv%.03.i.i5_2 mainv%.03.i.i5_1))
         mainv.preheader_0)
    (mainv.preheader mainv%_4_0
                     mainv%_7_0
                     mainv%_10_0
                     mainv%_13_0
                     mainv%_16_0
                     mainv%_19_0
                     mainv%_22_0
                     vg_0
                     mainv%.03.i.i5_2
                     mainv%loop.bound_0
                     mainv%.02.i.i7_1
                     mainv%_1_0
                     mainv%sm6_0
                     vfind_condition_0)))
(constraint (let ((a!1 (and (mainv_39 mainv%_4_0
                          mainv%_7_0
                          mainv%_10_0
                          mainv%_13_0
                          mainv%_16_0
                          mainv%_19_0
                          mainv%_22_0
                          mainv%.1.i.i_0
                          vg_0
                          mainv%.03.i.i5_0
                          mainv%loop.bound_0
                          mainv%_1_0
                          mainv%sm6_0
                          vfind_condition_0)
                true
                (= mainv%_40_0 vg_0)
                (= mainv%_41_0 vg_0)
                (= mainv%_42_0 vg_0)
                (= mainv%_43_0 vg_0)
                (= mainv%_44_0 vg_0)
                (= mainv%_45_0 vg_0)
                (= mainv%_46_0 vg_0)
                (= mainv%_47_0 (+ mainv%.03.i.i5_0 1))
                (= mainv%_48_0 (< mainv%.03.i.i5_0 mainv%loop.bound_0))
                (=> mainvpositive_sum.exit.i_0
                    (and mainvpositive_sum.exit.i_0 mainv_39_0))
                (=> (and mainvpositive_sum.exit.i_0 mainv_39_0)
                    (not mainv%_48_0))
                (=> mainvpositive_sum.exit.i_0 (= mainv%_49_0 (> mainv%_4_0 0)))
                (=> mainvpositive_sum.exit.i_0
                    (= mainv%_50_0 (ite mainv%_49_0 mainv%_4_0 0)))
                (=> mainvpositive_sum.exit.i_0 (= mainv%_51_0 (> mainv%_7_0 0)))
                (=> mainvpositive_sum.exit.i_0
                    (= mainv%_52_0 (ite mainv%_51_0 mainv%_7_0 0)))
                (=> mainvpositive_sum.exit.i_0
                    (= mainv%spec.select.1_0 (+ mainv%_52_0 mainv%_50_0)))
                (=> mainvpositive_sum.exit.i_0
                    (= mainv%_53_0 (> mainv%_10_0 0)))
                (=> mainvpositive_sum.exit.i_0
                    (= mainv%_54_0 (ite mainv%_53_0 mainv%_10_0 0)))
                (=> mainvpositive_sum.exit.i_0
                    (= mainv%spec.select.2_0
                       (+ mainv%_54_0 mainv%spec.select.1_0)))
                (=> mainvpositive_sum.exit.i_0
                    (= mainv%_55_0 (> mainv%_13_0 0)))
                (=> mainvpositive_sum.exit.i_0
                    (= mainv%_56_0 (ite mainv%_55_0 mainv%_13_0 0)))
                (=> mainvpositive_sum.exit.i_0
                    (= mainv%spec.select.3_0
                       (+ mainv%_56_0 mainv%spec.select.2_0)))
                (=> mainvpositive_sum.exit.i_0
                    (= mainv%_57_0 (> mainv%_16_0 0)))
                (=> mainvpositive_sum.exit.i_0
                    (= mainv%_58_0 (ite mainv%_57_0 mainv%_16_0 0)))
                (=> mainvpositive_sum.exit.i_0
                    (= mainv%spec.select.4_0
                       (+ mainv%_58_0 mainv%spec.select.3_0)))
                (=> mainvpositive_sum.exit.i_0
                    (= mainv%_59_0 (> mainv%_19_0 0)))
                (=> mainvpositive_sum.exit.i_0
                    (= mainv%_60_0 (ite mainv%_59_0 mainv%_19_0 0)))
                (=> mainvpositive_sum.exit.i_0
                    (= mainv%spec.select.5_0
                       (+ mainv%_60_0 mainv%spec.select.4_0)))
                (=> mainvpositive_sum.exit.i_0
                    (= mainv%_61_0 (> mainv%_22_0 0)))
                (=> mainvpositive_sum.exit.i_0
                    (= mainv%_62_0 (ite mainv%_61_0 mainv%_22_0 0)))
                (=> mainvpositive_sum.exit.i_0
                    (= mainv%spec.select.6_0
                       (+ mainv%_62_0 mainv%spec.select.5_0)))
                (=> mainvpositive_sum.exit.i_0
                    (= mainv%_63_0 (= mainv%.1.i.i_0 mainv%spec.select.6_0)))
                (=> mainvpositive_sum.exit.i_0 (not mainv%_63_0))
                (=> mainvpositive_sum.exit.i.split_0
                    (and mainvpositive_sum.exit.i.split_0
                         mainvpositive_sum.exit.i_0))
                mainvpositive_sum.exit.i.split_0)))
  (=> a!1 mainvpositive_sum.exit.i.split)))
(constraint (=> (and (mainv.preheader!_Cond
           vfind_condition_0
           vg_0
           mainv%loop.bound_0
           mainv%_1_0
           mainv%_4_0
           mainv%_7_0
           mainv%_10_0
           mainv%_13_0
           mainv%_16_0
           mainv%_19_0
           mainv%_22_0
           mainv%sm6_0
           mainv%.02.i.i7_0
           mainv%.03.i.i5_0
           mainv%.1.i.i_1)
         (mainv.preheader mainv%_4_0
                          mainv%_7_0
                          mainv%_10_0
                          mainv%_13_0
                          mainv%_16_0
                          mainv%_19_0
                          mainv%_22_0
                          vg_0
                          mainv%.03.i.i5_0
                          mainv%loop.bound_0
                          mainv%.02.i.i7_0
                          mainv%_1_0
                          mainv%sm6_0
                          vfind_condition_0)
         true
         (= mainv%_24_0 vg_0)
         (= mainv%_25_0 vg_0)
         (= mainv%_26_0 vg_0)
         (= mainv%_27_0 vg_0)
         (= mainv%_28_0 vg_0)
         (= mainv%_29_0 vg_0)
         (= mainv%_30_0 vg_0)
         (= mainv%_31_0 vfind_condition_0)
         (= mainv%_33_0 (= mainv%_32_0 0))
         (=> mainv_34_0 (and mainv_34_0 mainv.preheader_0))
         (=> (and mainv_34_0 mainv.preheader_0) (not mainv%_33_0))
         mainv_34_0)
    (mainv_34 mainv%_4_0
              mainv%_7_0
              mainv%_10_0
              mainv%_13_0
              mainv%_16_0
              mainv%_19_0
              mainv%_22_0
              vg_0
              mainv%.03.i.i5_0
              mainv%loop.bound_0
              mainv%.02.i.i7_0
              mainv%_1_0
              mainv%sm6_0
              vfind_condition_0)))
(constraint (=> (and (not (mainv.preheader!_Cond
                vfind_condition_0
                vg_0
                mainv%loop.bound_0
                mainv%_1_0
                mainv%_4_0
                mainv%_7_0
                mainv%_10_0
                mainv%_13_0
                mainv%_16_0
                mainv%_19_0
                mainv%_22_0
                mainv%sm6_0
                mainv%.02.i.i7_0
                mainv%.03.i.i5_0
                mainv%.1.i.i_1))
         (mainv.preheader mainv%_4_0
                          mainv%_7_0
                          mainv%_10_0
                          mainv%_13_0
                          mainv%_16_0
                          mainv%_19_0
                          mainv%_22_0
                          vg_0
                          mainv%.03.i.i5_0
                          mainv%loop.bound_0
                          mainv%.02.i.i7_0
                          mainv%_1_0
                          mainv%sm6_0
                          vfind_condition_0)
         true
         (= mainv%_24_0 vg_0)
         (= mainv%_25_0 vg_0)
         (= mainv%_26_0 vg_0)
         (= mainv%_27_0 vg_0)
         (= mainv%_28_0 vg_0)
         (= mainv%_29_0 vg_0)
         (= mainv%_30_0 vg_0)
         (= mainv%_31_0 vfind_condition_0)
         (= mainv%_33_0 (= mainv%_32_0 0))
         (=> mainv_39_0 (and mainv_39_0 mainv.preheader_0))
         (=> (and mainv_39_0 mainv.preheader_0) mainv%_33_0)
         (=> (and mainv_39_0 mainv.preheader_0)
             (= mainv%.1.i.i_0 mainv%.02.i.i7_0))
         (=> (and mainv_39_0 mainv.preheader_0)
             (= mainv%.1.i.i_1 mainv%.1.i.i_0))
         mainv_39_0)
    (mainv_39 mainv%_4_0
              mainv%_7_0
              mainv%_10_0
              mainv%_13_0
              mainv%_16_0
              mainv%_19_0
              mainv%_22_0
              mainv%.1.i.i_1
              vg_0
              mainv%.03.i.i5_0
              mainv%loop.bound_0
              mainv%_1_0
              mainv%sm6_0
              vfind_condition_0)))
(constraint (=> mainvpositive_sum.exit.i.split false))
(check-synth)
